certificates/rado_a10_c234_N29.cnf
c Rad2 upper bound instance: x1 + 10*x2 - x3 = 234, interval [1,29]
p cnf 29 168
1 7 24 0
-1 -7 -24 0
1 17 25 0
-1 -17 -25 0
1 26 27 0
-1 -26 -27 0
2 8 24 0
-2 -8 -24 0
2 18 25 0
-2 -18 -25 0
2 26 28 0
-2 -26 -28 0
3 9 24 0
-3 -9 -24 0
3 19 25 0
-3 -19 -25 0
3 26 29 0
-3 -26 -29 0
4 10 24 0
-4 -10 -24 0
4 20 25 0
-4 -20 -25 0
1 5 23 0
-1 -5 -23 0
5 11 24 0
-5 -11 -24 0
5 21 25 0
-5 -21 -25 0
2 6 23 0
-2 -6 -23 0
6 12 24 0
-6 -12 -24 0
6 22 25 0
-6 -22 -25 0
3 7 23 0
-3 -7 -23 0
7 13 24 0
-7 -13 -24 0
7 23 25 0
-7 -23 -25 0
4 8 23 0
-4 -8 -23 0
8 14 24 0
-8 -14 -24 0
8 24 25 0
-8 -24 -25 0
5 9 23 0
-5 -9 -23 0
9 15 24 0
-9 -15 -24 0
9 25 0
-9 -25 0
6 10 23 0
-6 -10 -23 0
10 16 24 0
-10 -16 -24 0
10 25 26 0
-10 -25 -26 0
7 11 23 0
-7 -11 -23 0
11 17 24 0
-11 -17 -24 0
11 25 27 0
-11 -25 -27 0
8 12 23 0
-8 -12 -23 0
12 18 24 0
-12 -18 -24 0
12 25 28 0
-12 -25 -28 0
9 13 23 0
-9 -13 -23 0
13 19 24 0
-13 -19 -24 0
13 25 29 0
-13 -25 -29 0
10 14 23 0
-10 -14 -23 0
14 20 24 0
-14 -20 -24 0
1 15 22 0
-1 -15 -22 0
11 15 23 0
-11 -15 -23 0
15 21 24 0
-15 -21 -24 0
2 16 22 0
-2 -16 -22 0
12 16 23 0
-12 -16 -23 0
16 22 24 0
-16 -22 -24 0
3 17 22 0
-3 -17 -22 0
13 17 23 0
-13 -17 -23 0
17 23 24 0
-17 -23 -24 0
4 18 22 0
-4 -18 -22 0
14 18 23 0
-14 -18 -23 0
18 24 0
-18 -24 0
5 19 22 0
-5 -19 -22 0
15 19 23 0
-15 -19 -23 0
19 24 25 0
-19 -24 -25 0
6 20 22 0
-6 -20 -22 0
16 20 23 0
-16 -20 -23 0
20 24 26 0
-20 -24 -26 0
7 21 22 0
-7 -21 -22 0
17 21 23 0
-17 -21 -23 0
21 24 27 0
-21 -24 -27 0
8 22 0
-8 -22 0
18 22 23 0
-18 -22 -23 0
22 24 28 0
-22 -24 -28 0
9 22 23 0
-9 -22 -23 0
19 23 0
-19 -23 0
23 24 29 0
-23 -24 -29 0
10 22 24 0
-10 -22 -24 0
20 23 24 0
-20 -23 -24 0
1 21 25 0
-1 -21 -25 0
11 22 25 0
-11 -22 -25 0
21 23 25 0
-21 -23 -25 0
2 21 26 0
-2 -21 -26 0
12 22 26 0
-12 -22 -26 0
22 23 26 0
-22 -23 -26 0
3 21 27 0
-3 -21 -27 0
13 22 27 0
-13 -22 -27 0
23 27 0
-23 -27 0
4 21 28 0
-4 -21 -28 0
14 22 28 0
-14 -22 -28 0
23 24 28 0
-23 -24 -28 0
5 21 29 0
-5 -21 -29 0
15 22 29 0
-15 -22 -29 0
23 25 29 0
-23 -25 -29 0
