certificates/rado_a10_c234_N29.drat
1 23 -29 0
-22 -28 0
26 22 0
-23 3 -29 0
-26 -29 0
d -26 -3 -29 0
23 -29 0
d 1 23 -29 0
-29 0
-22 -23 0
-23 0
19 0
27 0
24 0
25 0
-18 0
0
